NAME          ClpDefau
ROWS
 N  OBJROW
 L  R_284_0
 L  R_284_1
 L  R_284_2
 L  R_284_3
 L  R_284_4
 L  R_284_5
 L  R_284_6
 L  R_284_7
 L  R_284_8
 L  R_284_9
 L  R_284_10
 L  R_284_11
 L  R_284_12
 L  R_284_13
 L  R_284_14
 L  R_284_15
COLUMNS
    x_0       OBJROW     -1.           R_284_1   8.          
    x_0       R_284_2   1.             R_284_4   6.          
    x_0       R_284_6   9.             R_284_7   3.          
    x_0       R_284_8   1.             R_284_9   3.          
    x_0       R_284_10  9.             R_284_11  9.          
    x_0       R_284_12  3.             R_284_14  7.          
    x_0       R_284_15  6.          
    x_1       OBJROW     -2.           R_284_0   6.          
    x_1       R_284_1   8.             R_284_2   7.          
    x_1       R_284_3   8.             R_284_4   4.          
    x_1       R_284_5   8.             R_284_6   6.          
    x_1       R_284_7   8.             R_284_9   10.         
    x_1       R_284_10  9.             R_284_11  8.          
    x_1       R_284_12  6.          
    x_2       OBJROW     -2.           R_284_0   8.          
    x_2       R_284_1   9.             R_284_2   9.          
    x_2       R_284_3   10.            R_284_4   4.          
    x_2       R_284_5   6.             R_284_7   2.          
    x_2       R_284_8   6.             R_284_9   4.          
    x_2       R_284_11  10.            R_284_12  5.          
    x_2       R_284_13  2.             R_284_14  3.          
    x_3       OBJROW     -6.           R_284_0   4.          
    x_3       R_284_2   1.             R_284_3   6.          
    x_3       R_284_4   1.             R_284_5   2.          
    x_3       R_284_6   1.             R_284_7   3.          
    x_3       R_284_9   3.             R_284_10  1.          
    x_3       R_284_11  1.             R_284_12  4.          
    x_3       R_284_13  1.             R_284_14  10.         
    x_3       R_284_15  2.          
    x_4       OBJROW     -3.           R_284_0   8.          
    x_4       R_284_1   8.             R_284_2   10.         
    x_4       R_284_3   5.             R_284_4   10.         
    x_4       R_284_5   8.             R_284_7   6.          
    x_4       R_284_9   3.             R_284_10  7.          
    x_4       R_284_11  6.             R_284_12  6.          
    x_4       R_284_13  10.            R_284_15  9.          
    x_5       OBJROW     -5.           R_284_1   5.          
    x_5       R_284_2   3.             R_284_3   8.          
    x_5       R_284_4   9.             R_284_6   1.          
    x_5       R_284_8   8.             R_284_9   2.          
    x_5       R_284_10  10.            R_284_11  10.         
    x_5       R_284_12  5.             R_284_13  5.          
    x_5       R_284_14  1.             R_284_15  7.          
    x_6       OBJROW     -5.           R_284_0   2.          
    x_6       R_284_1   2.             R_284_2   2.          
    x_6       R_284_3   4.             R_284_4   1.          
    x_6       R_284_5   8.             R_284_6   9.          
    x_6       R_284_7   4.             R_284_8   4.          
    x_6       R_284_9   7.             R_284_10  1.          
    x_6       R_284_11  1.             R_284_14  2.          
    x_6       R_284_15  8.          
    x_7       OBJROW     -10.          R_284_0   9.          
    x_7       R_284_2   6.             R_284_3   6.          
    x_7       R_284_4   7.             R_284_5   5.          
    x_7       R_284_6   1.             R_284_8   8.          
    x_7       R_284_9   10.            R_284_10  1.          
    x_7       R_284_11  6.             R_284_12  2.          
    x_7       R_284_13  8.             R_284_14  10.         
    x_7       R_284_15  8.          
    x_8       OBJROW     -4.           R_284_0   6.          
    x_8       R_284_1   2.             R_284_2   2.          
    x_8       R_284_3   6.             R_284_4   4.          
    x_8       R_284_5   1.             R_284_6   8.          
    x_8       R_284_7   8.             R_284_8   8.          
    x_8       R_284_9   6.             R_284_10  9.          
    x_8       R_284_12  7.             R_284_15  4.          
    x_9       OBJROW     -10.          R_284_0   10.         
    x_9       R_284_1   7.             R_284_2   2.          
    x_9       R_284_3   10.            R_284_4   6.          
    x_9       R_284_5   9.             R_284_6   7.          
    x_9       R_284_8   1.             R_284_9   5.          
    x_9       R_284_10  6.             R_284_11  9.          
    x_9       R_284_12  3.             R_284_13  7.          
    x_9       R_284_14  9.             R_284_15  9.          
    x_10      OBJROW     -1.           R_284_0   3.          
    x_10      R_284_1   4.             R_284_2   6.          
    x_10      R_284_3   10.            R_284_4   8.          
    x_10      R_284_5   1.             R_284_7   3.          
    x_10      R_284_8   1.             R_284_9   7.          
    x_10      R_284_10  7.             R_284_11  8.          
    x_10      R_284_12  9.             R_284_13  2.          
    x_10      R_284_14  4.             R_284_15  4.          
    x_11      OBJROW     -10.          R_284_0   7.          
    x_11      R_284_2   1.             R_284_3   9.          
    x_11      R_284_4   8.             R_284_5   2.          
    x_11      R_284_6   4.             R_284_7   10.         
    x_11      R_284_8   4.             R_284_10  9.          
    x_11      R_284_11  4.             R_284_12  10.         
    x_11      R_284_13  8.             R_284_15  10.         
    x_12      OBJROW     -3.           R_284_0   8.          
    x_12      R_284_1   10.            R_284_2   4.          
    x_12      R_284_4   6.             R_284_5   8.          
    x_12      R_284_6   2.             R_284_7   8.          
    x_12      R_284_10  9.             R_284_11  2.          
    x_12      R_284_12  6.             R_284_13  7.          
    x_12      R_284_14  3.             R_284_15  8.          
    x_13      OBJROW     -7.           R_284_0   8.          
    x_13      R_284_1   3.             R_284_2   9.          
    x_13      R_284_3   1.             R_284_4   9.          
    x_13      R_284_6   4.             R_284_8   3.          
    x_13      R_284_9   9.             R_284_10  5.          
    x_13      R_284_11  6.             R_284_12  5.          
    x_13      R_284_13  7.             R_284_14  2.          
    x_13      R_284_15  4.          
    x_14      OBJROW     -7.           R_284_0   9.          
    x_14      R_284_2   9.             R_284_3   5.          
    x_14      R_284_4   8.             R_284_5   9.          
    x_14      R_284_6   2.             R_284_7   7.          
    x_14      R_284_9   6.             R_284_10  8.          
    x_14      R_284_11  8.             R_284_12  5.          
    x_14      R_284_13  3.             R_284_15  4.          
    x_15      OBJROW     -9.           R_284_1   2.          
    x_15      R_284_3   6.             R_284_4   3.          
    x_15      R_284_5   4.             R_284_6   9.          
    x_15      R_284_7   7.             R_284_9   5.          
    x_15      R_284_12  6.             R_284_13  5.          
    x_15      R_284_14  2.             R_284_15  7.          
RHS
    RHS       R_284_0   79.            R_284_1   69.         
    RHS       R_284_2   72.            R_284_3   75.         
    RHS       R_284_4   78.            R_284_5   79.         
    RHS       R_284_6   66.            R_284_7   69.         
    RHS       R_284_8   74.            R_284_9   76.         
    RHS       R_284_10  68.            R_284_11  64.         
    RHS       R_284_12  67.            R_284_13  75.         
    RHS       R_284_14  69.            R_284_15  75.         
BOUNDS
 UI BOUND     x_0       10.         
 UI BOUND     x_1       10.         
 UI BOUND     x_2       10.         
 UI BOUND     x_3       10.         
 UI BOUND     x_4       10.         
 UI BOUND     x_5       10.         
 UI BOUND     x_6       10.         
 UI BOUND     x_7       10.         
 UI BOUND     x_8       10.         
 UI BOUND     x_9       10.         
 UI BOUND     x_10      10.         
 UI BOUND     x_11      10.         
 UI BOUND     x_12      10.         
 UI BOUND     x_13      10.         
 UI BOUND     x_14      10.         
 UI BOUND     x_15      10.         
ENDATA
